100
[10,11,12,13,14,15,16,17,18,19,20,21,22,23,24,25,26,27,28,29,30,31,32,33,34,35,36,37,38,39,40,41,42,43,44,45,46,47,48,49,50,51,52,53,54,55,56,57,58,59,60,61,62,63,64,65,66,67,68,69,70,71,72,73,74,75,76,77,78,79,80]
[17,12,12,16,14,14,12,12,10,10,12,13,16,11,16,11,15,18,14,12,16,9,12,19,19,16,16,10,8,22,13,12,20,8,14,18,13,12,15,15,12,16,7,17,16,19,18,11,20,14,15,13,15,16,16,11,9,15,13,9,14,14,9,19,13,20,17,16,15,14,13]
